35
1 0 1
2 0 1
2 1 1
4 0 1
4 1 1
4 3 1
5 1 1
5 2 1
5 3 1
5 4 1
6 0 1
6 4 1
6 5 1
7 1 1
7 2 1
7 3 1
7 4 1
7 5 1
8 1 1
8 2 1
8 4 1
9 0 1
9 4 1
9 5 1
9 6 1
9 8 1
10 1 1
10 3 1
10 5 1
10 6 1
10 8 1
10 9 1
11 5 1
11 8 1
12 0 1
12 1 1
12 4 1
12 5 1
12 7 1
12 8 1
12 11 1
13 1 1
13 2 1
13 3 1
13 5 1
13 6 1
13 7 1
13 9 1
13 10 1
13 11 1
13 12 1
14 5 1
14 6 1
14 7 1
14 8 1
14 9 1
14 10 1
14 11 1
14 12 1
14 13 1
15 1 1
15 3 1
15 4 1
15 5 1
15 6 1
15 9 1
15 12 1
15 13 1
16 1 1
16 4 1
16 6 1
16 7 1
16 9 1
16 10 1
16 12 1
16 13 1
16 14 1
17 0 1
17 1 1
17 6 1
17 8 1
17 9 1
17 14 1
17 15 1
18 0 1
18 1 1
18 2 1
18 3 1
18 4 1
18 5 1
18 10 1
18 12 1
18 13 1
18 17 1
19 0 1
19 1 1
19 5 1
19 7 1
19 8 1
19 10 1
19 13 1
19 14 1
19 15 1
19 17 1
19 18 1
20 2 1
20 3 1
20 6 1
20 7 1
20 8 1
20 11 1
20 12 1
20 13 1
20 15 1
20 16 1
20 18 1
20 19 1
21 2 1
21 3 1
21 8 1
21 9 1
21 11 1
21 14 1
21 20 1
22 0 1
22 1 1
22 4 1
22 7 1
22 12 1
22 13 1
22 14 1
22 18 1
22 19 1
22 21 1
23 0 1
23 1 1
23 2 1
23 4 1
23 8 1
23 10 1
23 13 1
23 14 1
23 15 1
23 20 1
23 21 1
24 0 1
24 5 1
24 6 1
24 7 1
24 8 1
24 9 1
24 11 1
24 12 1
24 19 1
24 21 1
24 22 1
24 23 1
25 0 1
25 2 1
25 3 1
25 7 1
25 8 1
25 10 1
25 14 1
25 15 1
25 17 1
25 18 1
25 19 1
25 21 1
25 23 1
25 24 1
26 0 1
26 2 1
26 7 1
26 9 1
26 10 1
26 11 1
26 12 1
26 14 1
26 17 1
26 18 1
26 20 1
26 23 1
27 3 1
27 7 1
27 8 1
27 9 1
27 13 1
27 14 1
27 17 1
27 18 1
27 19 1
27 20 1
27 21 1
27 24 1
28 1 1
28 3 1
28 5 1
28 8 1
28 10 1
28 13 1
28 14 1
28 15 1
28 17 1
28 18 1
28 19 1
28 22 1
28 25 1
28 26 1
28 27 1
29 3 1
29 4 1
29 5 1
29 7 1
29 9 1
29 11 1
29 12 1
29 14 1
29 15 1
29 18 1
29 20 1
29 23 1
29 25 1
29 27 1
29 28 1
30 1 1
30 2 1
30 3 1
30 4 1
30 6 1
30 9 1
30 10 1
30 13 1
30 16 1
30 17 1
30 19 1
30 21 1
30 22 1
30 23 1
30 27 1
30 28 1
30 29 1
31 2 1
31 3 1
31 8 1
31 10 1
31 11 1
31 13 1
31 21 1
31 22 1
31 26 1
32 0 1
32 5 1
32 6 1
32 7 1
32 8 1
32 9 1
32 10 1
32 14 1
32 16 1
32 18 1
32 19 1
32 20 1
32 21 1
32 23 1
32 25 1
32 26 1
32 31 1
33 0 1
33 1 1
33 3 1
33 4 1
33 5 1
33 7 1
33 8 1
33 9 1
33 13 1
33 14 1
33 15 1
33 19 1
33 21 1
33 23 1
33 26 1
33 29 1
33 30 1
33 31 1
33 32 1
34 1 1
34 2 1
34 3 1
34 8 1
34 9 1
34 10 1
34 13 1
34 14 1
34 15 1
34 18 1
34 19 1
34 22 1
34 25 1
34 31 1
34 32 1
